n = 179;

m = 5;

p = [36, 36, 35, 36, 36];

v = [0.0, 0.25, 0.5, 0.75, 1.0];

c = array2d(1..m, 1..m, [
    0.0, 2.0, 4.0, 6.0, 8.0,
    2.0, 0.0, 2.0, 4.0, 6.0,
    4.0, 2.0, 0.0, 2.0, 4.0,
    6.0, 4.0, 2.0, 0.0, 2.0,
    8.0, 6.0, 4.0, 2.0, 0.0
]);

ce = [1.0, 1.0, 1.0, 1.0, 1.0];

ct = 30.0;

maxM = 10;
